language ESSENCE' 1.0
$ Generated from file data/MMLIB50/J5052_3.mm
$ Best heuristic solution: makespan = 34, combo = parallel/GRPW/LFT/random
$ Pruned 1 mode(s) by time-window test (horizon = 34)
$ activity,mode,start (1-based indexing)
$ 1,1,0
$ 2,1,0
$ 3,1,0
$ 4,2,0
$ 5,2,0
$ 6,2,0
$ 7,1,5
$ 8,2,0
$ 9,1,6
$ 10,1,0
$ 11,2,0
$ 12,1,7
$ 13,1,7
$ 14,2,8
$ 15,1,7
$ 16,3,0
$ 17,3,7
$ 18,1,11
$ 19,1,8
$ 20,3,8
$ 21,2,7
$ 22,1,9
$ 23,3,7
$ 24,1,11
$ 25,2,14
$ 26,2,10
$ 27,1,17
$ 28,2,11
$ 29,1,10
$ 30,2,11
$ 31,1,10
$ 32,1,18
$ 33,3,10
$ 34,3,16
$ 35,2,16
$ 36,2,15
$ 37,1,18
$ 38,1,23
$ 39,3,20
$ 40,1,23
$ 41,2,17
$ 42,3,18
$ 43,3,17
$ 44,1,28
$ 45,1,28
$ 46,1,27
$ 47,1,29
$ 48,3,26
$ 49,3,24
$ 50,3,24
$ 51,2,26
$ 52,1,34
letting jobs = 52
letting lowerBound = 28
letting horizon = 33
letting resourcesRenew = 2
letting resourcesNonrenew = 2
letting successors = [[2, 3, 4, 5, 6, 8, 10, 11, 16], [29, 26, 23, 21, 15, 14, 7], [31, 23, 22, 21, 17, 12, 9], [33, 29, 28, 26, 25, 23, 21, 15, 14], [35, 33, 25, 21, 20, 19, 13], [35, 34, 31, 26, 25, 12], [34, 31, 17, 12], [21, 18, 13], [33, 32, 30, 29, 28, 26, 25, 24, 18], [31, 29, 20, 15], [43, 41, 36, 34, 33, 30, 29, 24, 20], [43, 41, 33, 30, 28, 20, 19], [43, 32, 31, 30, 29, 27, 26, 22], [42, 41, 36, 35, 34, 32, 31, 30, 27], [37, 36, 30, 24, 18], [51, 43, 42, 41, 37, 33, 32, 30, 27], [41, 37, 36, 35, 32, 25], [49, 42, 41, 39, 38, 35, 34], [40, 37, 36, 24], [51, 50, 42, 37, 32], [50, 49, 41, 39, 38, 34], [42, 40, 28], [50, 49, 47, 43, 41, 39], [48, 27], [51, 49, 48, 39, 38], [51, 50, 49, 47, 46, 40], [50, 49, 39, 38], [47, 37, 36], [50, 47, 46, 40, 39], [48, 40, 38], [51, 46, 37], [48, 45, 38], [48, 45, 38], [51, 47, 46, 45, 44], [51, 46, 40], [50, 49, 45, 44], [49, 39], [47, 46, 44], [45, 44], [45, 44], [48, 46], [48], [48], [52], [52], [52], [52], [52], [52], [52], [52], []]
letting durations = [[0], [5, 9, 10], [6, 8, 9], [2, 7, 9], [4, 7, 8], [7, 7, 9], [2, 7, 8], [1, 7, 10], [4, 6, 7], [4, 7, 9], [2, 8, 9], [1, 3], [2, 4, 7], [1, 2, 10], [4, 9, 10], [4, 7, 10], [6, 6, 7], [5, 6, 8], [1, 4, 5], [6, 7, 10], [3, 9, 10], [2, 9, 10], [3, 9, 10], [6, 8, 9], [2, 3, 7], [1, 5, 5], [2, 3, 5], [1, 4, 9], [3, 6, 7], [4, 6, 8], [5, 7, 9], [5, 8, 10], [6, 7, 10], [2, 4, 10], [2, 7, 8], [1, 9, 10], [2, 4, 10], [4, 10, 10], [1, 3, 7], [5, 9, 10], [2, 8, 9], [1, 8, 8], [3, 4, 7], [5, 6, 7], [4, 9, 10], [3, 9, 10], [1, 7, 10], [2, 7, 8], [1, 10, 10], [2, 5, 8], [1, 3, 6], [0]]
letting resourceUsage = [[[0, 0, 0, 0]], [[6, 0, 5, 8], [0, 6, 4, 7], [0, 2, 1, 6]], [[0, 6, 6, 7], [0, 5, 5, 5], [0, 4, 5, 4]], [[10, 0, 7, 5], [6, 0, 5, 4], [5, 0, 4, 2]], [[8, 0, 5, 8], [0, 5, 4, 5], [3, 0, 4, 5]], [[0, 4, 4, 6], [5, 0, 4, 5], [0, 3, 4, 5]], [[4, 0, 3, 10], [0, 7, 1, 9], [4, 0, 1, 9]], [[0, 9, 8, 3], [0, 9, 6, 3], [5, 0, 6, 2]], [[0, 2, 5, 7], [0, 2, 4, 7], [0, 2, 4, 6]], [[2, 0, 5, 4], [0, 7, 4, 3], [0, 6, 4, 3]], [[8, 0, 6, 5], [7, 0, 5, 5], [6, 0, 5, 5]], [[0, 8, 9, 8], [3, 0, 8, 8]], [[0, 6, 1, 7], [0, 6, 1, 6], [0, 5, 1, 5]], [[0, 6, 1, 3], [0, 5, 1, 1], [8, 0, 1, 1]], [[0, 5, 5, 9], [0, 3, 5, 6], [0, 3, 3, 1]], [[0, 8, 10, 10], [0, 5, 4, 5], [0, 2, 2, 1]], [[3, 0, 7, 9], [0, 5, 3, 8], [3, 0, 1, 8]], [[6, 0, 6, 7], [6, 0, 6, 6], [0, 3, 4, 3]], [[0, 7, 7, 5], [0, 7, 7, 4], [0, 6, 5, 4]], [[5, 0, 8, 8], [5, 0, 7, 5], [3, 0, 6, 4]], [[0, 7, 4, 10], [5, 0, 4, 8], [0, 2, 2, 7]], [[0, 7, 4, 9], [0, 6, 4, 9], [0, 5, 4, 9]], [[0, 9, 7, 10], [5, 0, 4, 9], [2, 0, 3, 7]], [[1, 0, 6, 6], [1, 0, 4, 6], [1, 0, 3, 6]], [[0, 6, 5, 2], [0, 4, 5, 2], [10, 0, 5, 2]], [[0, 5, 3, 8], [0, 2, 2, 7], [6, 0, 2, 5]], [[10, 0, 5, 10], [5, 0, 3, 9], [0, 4, 3, 9]], [[9, 0, 8, 7], [0, 4, 6, 3], [0, 3, 1, 2]], [[0, 4, 6, 4], [7, 0, 6, 2], [0, 4, 3, 2]], [[0, 8, 4, 6], [0, 7, 3, 6], [6, 0, 2, 6]], [[0, 6, 4, 7], [0, 6, 3, 7], [0, 6, 2, 6]], [[4, 0, 8, 4], [0, 5, 7, 4], [2, 0, 6, 4]], [[5, 0, 10, 8], [5, 0, 10, 7], [4, 0, 10, 7]], [[0, 6, 9, 6], [8, 0, 7, 5], [8, 0, 7, 2]], [[9, 0, 7, 6], [0, 2, 5, 5], [6, 0, 3, 5]], [[0, 7, 6, 9], [0, 6, 4, 9], [0, 6, 4, 8]], [[9, 0, 10, 8], [9, 0, 8, 6], [9, 0, 8, 5]], [[0, 3, 9, 2], [0, 3, 9, 1], [6, 0, 9, 1]], [[0, 6, 7, 9], [8, 0, 6, 9], [0, 4, 2, 9]], [[6, 0, 6, 6], [4, 0, 5, 4], [1, 0, 4, 3]], [[0, 7, 8, 6], [1, 0, 8, 4], [1, 0, 8, 3]], [[9, 0, 9, 8], [8, 0, 7, 5], [0, 1, 7, 3]], [[0, 7, 6, 7], [0, 3, 5, 7], [1, 0, 3, 5]], [[0, 3, 8, 6], [8, 0, 8, 4], [6, 0, 7, 4]], [[7, 0, 8, 7], [0, 7, 4, 4], [6, 0, 2, 3]], [[0, 7, 4, 6], [0, 6, 3, 5], [2, 0, 1, 5]], [[0, 9, 8, 7], [5, 0, 8, 4], [2, 0, 6, 4]], [[7, 0, 6, 7], [0, 3, 5, 6], [0, 2, 4, 3]], [[5, 0, 8, 7], [0, 7, 6, 7], [4, 0, 5, 4]], [[0, 6, 9, 6], [0, 6, 5, 4], [0, 5, 4, 3]], [[8, 0, 5, 9], [0, 8, 5, 6], [0, 8, 5, 5]], [[0, 0, 0, 0]]]
letting resourceLimits = [38, 27, 259, 285]
$ Near-critical path lengths (shortest-mode sums): [28, 28, 27, 27, 27]
letting nearCriticalPaths = [[1, 6, 12, 20, 32, 38, 44, 52], [1, 2, 7, 12, 20, 32, 38, 44, 52], [1, 3, 9, 24, 27, 38, 44, 52], [1, 2, 7, 17, 32, 38, 44, 52], [1, 3, 12, 20, 32, 38, 44, 52]]
